K = 1;
SD = 3;
E = 5;
G = 1;
cost_max = 23137782;
spectrum_max = 100000;
dist_max = 453682;
alfa = [[100],[100],[100],[100]];
dist = [500, 200, 300, 300];
l = [
[1,0,0,0],
[0,1,0,0],
[0,0,1,0],
[0,0,0,1]];
R = [
[1,0,0,0,0],
[0,1,0,0,0],
[0,0,1,0,0],
[0,0,0,1,0]];
